NAME: rue_20_10
TYPE: TSP
DIMENSION: 20
EDGE_WEIGHT_TYPE: EUC_2D
NODE_COORD_SECTION
1 9 10
2 25 94
3 68 87
4 88 3
5 80 28
6 49 5
7 11 32
8 95 2
9 53 14
10 99 84
11 54 5
12 67 92
13 99 60
14 15 68
15 35 8
16 25 50
17 16 48
18 61 66
19 59 62
20 17 15
